100
128
51
22
49
26
62
1
2
13
57
39
48
14
4
10
58
25
25
10
20
50
29
14
34
33
13
35
29
26
47
15
50
44
23
61
59
2
37
30
25
24
20
59
2
47
16
14
14
54
19
35
20
13
48
13
18
19
20
25
30
50
16
50
21
1
64
25
53
38
19
57
31
1
20
34
24
22
56
31
59
60
48
39
54
33
39
60
59
5
30
46
60
34
44
58
32
38
34
35
36
57